# Solution for model GasLib-40
# Objective value = 5.7180309365936914e+01
loadshed[innode_1] 0
loadshed[innode_2] 0
loadshed[innode_3] 0
loadshed[innode_4] 0
loadshed[innode_5] 0
loadshed[innode_6] 0
loadshed[innode_7] 0
loadshed[innode_8] 0
loadshed[source_1] -9.9250872097411458e-02
loadshed[source_2] 6.0646450310054223e-02
loadshed[source_3] 4.0029844984323937e-01
loadshed[sink_1] 5.6713930745253172e-01
loadshed[sink_2] 0
loadshed[sink_3] 0
loadshed[sink_4] 0
loadshed[sink_5] 0
loadshed[sink_6] 0
loadshed[sink_7] 0
loadshed[sink_8] 0
loadshed[sink_9] 0
loadshed[sink_10] 0
loadshed[sink_11] 0
loadshed[sink_12] 1
loadshed[sink_13] 0
loadshed[sink_14] 0
loadshed[sink_15] 0
loadshed[sink_16] 0
loadshed[sink_17] 0
loadshed[sink_18] 0
loadshed[sink_19] 0
loadshed[sink_20] 0
loadshed[sink_21] 1
loadshed[sink_22] 0
loadshed[sink_23] 0
loadshed[sink_24] 9.2923629708883348e-01
loadshed[sink_25] 0
loadshed[sink_26] 0
loadshed[sink_27] 0
loadshed[sink_28] 0
loadshed[sink_29] 0
flow[source_1,sink_3] 1.7378087571734426e+02
flow[innode_1,sink_16] 1.6354166666666970e+01
flow[innode_6,sink_13] 1.9672182018633919e+01
flow[sink_13,sink_14] 3.3180153519672508e+00
flow[sink_14,sink_10] -1.3036151314699282e+01
flow[sink_25,sink_26] 0
flow[sink_26,sink_9] 6.3653868871320014e+01
flow[sink_9,sink_18] 4.7299702204653343e+01
flow[sink_26,sink_4] -8.0008035537986657e+01
flow[sink_4,sink_20] -1.5542385730072979e+02
flow[sink_18,sink_6] 3.0945535537986672e+01
flow[sink_25,innode_8] -1.4107254238400787e+02
flow[sink_6,sink_7] -8.8418737047167326e+00
flow[sink_6,sink_22] 2.3433242576036722e+01
flow[sink_7,sink_24] 1.1572813913597049e+00
flow[sink_22,sink_1] 7.0790759093700553e+00
flow[sink_24,sink_21] 0
flow[sink_21,sink_12] 0
flow[sink_7,sink_5] -2.6353321762743093e+01
flow[sink_5,sink_17] -4.2707488429409779e+01
flow[sink_17,sink_4] -5.9061655096076450e+01
flow[sink_17,sink_8] 0
flow[sink_3,sink_23] 16.3541666666697
flow[sink_8,sink_20] -1.6354166666668334e+01
flow[sink_25,sink_20] 1.8813219063406476e+02
flow[sink_25,sink_15] -8.3085996935357173e+01
flow[sink_15,sink_29] -5.6273854709652085e+01
flow[sink_29,sink_28] 1.6354166666667879e+01
flow[sink_29,sink_2] 5.9520475559038459e+01
flow[sink_2,sink_15] 4.3166308892371831e+01
flow[sink_29,innode_7] -1.4850266360202511e+02
flow[innode_4,sink_19] 9.4806984648046210e+01
flow[sink_19,innode_3] 3.0303879723308835e+01
flow[innode_4,innode_5] 0
flow[sink_27,innode_5] 0
flow[sink_27,sink_19] -1.6354166666679703e+01
flow[sink_10,sink_11] 3.2708333333333641e+01
flow[sink_10,innode_2] -3.1794771591391026e+01
flow[sink_10,innode_3] -3.0303879723308835e+01
flow[innode_6,sink_25] -1.9672182018633919e+01
flow[sink_11,innode_1] 1.6354166666666970e+01
flow[sink_19,innode_2] 3.1794771591391026e+01
flow[source_3,innode_4] 9.4806984648046210e+01
flow[source_2,innode_7] 1.4850266360202511e+02
flow[sink_3,innode_8] 1.4107254238400787e+02
pressure[innode_1] 7.5340191179417928e+01
pressure[innode_2] 7.7172377482333943e+01
pressure[innode_3] 7.7105272972228789e+01
pressure[innode_4] 81.01325
pressure[innode_5] 7.6821247485190440e+01
pressure[innode_6] 7.4989688157542375e+01
pressure[innode_7] 81.01325
pressure[innode_8] 80.4323669191777
pressure[source_1] 81.01325
pressure[source_2] 81.01325
pressure[source_3] 81.01325
pressure[sink_1] 1.0132500000000002e+00
pressure[sink_2] 7.5533664688320769e+01
pressure[sink_3] 80.4323669191777
pressure[sink_4] 1.8736932297970963e+01
pressure[sink_5] 1.3298391400588470e+01
pressure[sink_6] 2.2168731126155037e+00
pressure[sink_7] 2.3382509627442079e+00
pressure[sink_8] 2.8999893727458630e+01
pressure[sink_9] 4.7546552515697007e+00
pressure[sink_10] 7.5491892487021474e+01
pressure[sink_11] 7.5340191179417928e+01
pressure[sink_12] 1.01325
pressure[sink_13] 7.4881238705600666e+01
pressure[sink_14] 7.4875300834495917e+01
pressure[sink_15] 7.5392736203488411e+01
pressure[sink_16] 7.4318541344600249e+01
pressure[sink_17] 1.6479790589986621e+01
pressure[sink_18] 3.0432110484473798e+00
pressure[sink_19] 7.7172377482333943e+01
pressure[sink_20] 3.0139549151046921e+01
pressure[sink_21] 1.01325
pressure[sink_22] 1.4737138476704077e+00
pressure[sink_23] 8.0267648907517909e+01
pressure[sink_24] 1.01325
pressure[sink_25] 7.4989688157542375e+01
pressure[sink_26] 8.5645035896314
pressure[sink_27] 7.6821247485190440e+01
pressure[sink_28] 7.6746103233544929e+01
pressure[sink_29] 7.7041385507162119e+01
interdiction[source_1,sink_3] 0
interdiction[innode_1,sink_16] 0
interdiction[innode_6,sink_13] 0
interdiction[sink_13,sink_14] 0
interdiction[sink_14,sink_10] 0
interdiction[sink_25,sink_26] 1
interdiction[sink_26,sink_9] 0
interdiction[sink_9,sink_18] 0
interdiction[sink_26,sink_4] 0
interdiction[sink_4,sink_20] 0
interdiction[sink_18,sink_6] 0
interdiction[sink_25,innode_8] 0
interdiction[sink_6,sink_7] 0
interdiction[sink_6,sink_22] 0
interdiction[sink_7,sink_24] 0
interdiction[sink_22,sink_1] 0
interdiction[sink_24,sink_21] 0
interdiction[sink_21,sink_12] 0
interdiction[sink_7,sink_5] 0
interdiction[sink_5,sink_17] 0
interdiction[sink_17,sink_4] 0
interdiction[sink_17,sink_8] 1
interdiction[sink_3,sink_23] 0
interdiction[sink_8,sink_20] 0
interdiction[sink_25,sink_20] 0
interdiction[sink_25,sink_15] 0
interdiction[sink_15,sink_29] 0
interdiction[sink_29,sink_28] 0
interdiction[sink_29,sink_2] 0
interdiction[sink_2,sink_15] 0
interdiction[sink_29,innode_7] 0
interdiction[innode_4,sink_19] 0
interdiction[sink_19,innode_3] 0
interdiction[innode_4,innode_5] 1
interdiction[sink_27,innode_5] 0
interdiction[sink_27,sink_19] 0
interdiction[sink_10,sink_11] 0
interdiction[sink_10,innode_2] 0
interdiction[sink_10,innode_3] 0
interdiction[innode_6,sink_25] 0
interdiction[sink_11,innode_1] 0
interdiction[sink_19,innode_2] 0
interdiction[source_3,innode_4] 0
interdiction[source_2,innode_7] 0
interdiction[sink_3,innode_8] 0
WCcheckFlow[source_1,sink_3] 39
WCcheckFlow[innode_1,sink_16] 1
WCcheckFlow[innode_6,sink_13] 13
WCcheckFlow[sink_13,sink_14] 12
WCcheckFlow[sink_14,sink_10] 11
WCcheckFlow[sink_25,sink_26] 0
WCcheckFlow[sink_26,sink_9] 11
WCcheckFlow[sink_9,sink_18] 10
WCcheckFlow[sink_26,sink_4] -12
WCcheckFlow[sink_4,sink_20] -13
WCcheckFlow[sink_18,sink_6] 9
WCcheckFlow[sink_25,innode_8] -36
WCcheckFlow[sink_6,sink_7] 6
WCcheckFlow[sink_6,sink_22] 2
WCcheckFlow[sink_7,sink_24] 3
WCcheckFlow[sink_22,sink_1] 1
WCcheckFlow[sink_24,sink_21] 2
WCcheckFlow[sink_21,sink_12] 1
WCcheckFlow[sink_7,sink_5] 2
WCcheckFlow[sink_5,sink_17] 1
WCcheckFlow[sink_17,sink_4] 0
WCcheckFlow[sink_17,sink_8] 0
WCcheckFlow[sink_3,sink_23] 1
WCcheckFlow[sink_8,sink_20] -1
WCcheckFlow[sink_25,sink_20] 15
WCcheckFlow[sink_25,sink_15] 6
WCcheckFlow[sink_15,sink_29] 5
WCcheckFlow[sink_29,sink_28] 1
WCcheckFlow[sink_29,sink_2] 1
WCcheckFlow[sink_2,sink_15] 0
WCcheckFlow[sink_29,innode_7] 2
WCcheckFlow[innode_4,sink_19] -2
WCcheckFlow[sink_19,innode_3] -5
WCcheckFlow[innode_4,innode_5] 0
WCcheckFlow[sink_27,innode_5] 1
WCcheckFlow[sink_27,sink_19] -2
WCcheckFlow[sink_10,sink_11] 3
WCcheckFlow[sink_10,innode_2] 1
WCcheckFlow[sink_10,innode_3] 6
WCcheckFlow[innode_6,sink_25] -14
WCcheckFlow[sink_11,innode_1] 2
WCcheckFlow[sink_19,innode_2] 0
WCcheckFlow[source_3,innode_4] -1
WCcheckFlow[source_2,innode_7] -1
WCcheckFlow[sink_3,innode_8] 37
